p edge 1882 1740
v 1 2
v 2 3
v 3 4
v 4 5
v 5 6
v 6 7
v 7 8
v 8 9
v 9 10
v 10 11
v 11 12
v 12 13
v 13 14
v 14 15
v 15 16
v 16 17
v 17 18
v 18 19
v 19 20
v 20 21
v 21 22
v 22 23
v 23 24
v 24 25
v 25 26
v 26 27
v 27 28
v 28 29
v 29 30
v 30 31
v 31 32
v 32 33
v 33 34
v 34 35
v 35 36
v 36 37
v 37 38
v 38 39
v 39 40
v 40 41
v 41 42
v 42 43
v 43 44
v 44 45
v 45 46
v 46 47
v 47 48
v 48 49
v 49 50
v 50 51
v 51 52
v 52 53
v 53 54
v 54 55
v 55 56
v 56 57
v 57 58
v 58 59
v 59 60
v 60 61
v 61 62
v 62 63
v 63 64
v 64 65
v 65 66
v 66 67
v 67 68
v 68 69
v 69 70
v 70 71
v 71 72
v 72 73
v 73 74
v 74 75
v 75 76
v 76 77
v 77 78
v 78 79
v 79 80
v 80 81
v 81 82
v 82 83
v 83 84
v 84 85
v 85 86
v 86 87
v 87 88
v 88 89
v 89 90
v 90 91
v 91 92
v 92 93
v 93 94
v 94 95
v 95 96
v 96 97
v 97 98
v 98 99
v 99 100
v 100 101
v 101 102
v 102 103
v 103 104
v 104 105
v 105 106
v 106 107
v 107 108
v 108 109
v 109 110
v 110 111
v 111 112
v 112 113
v 113 114
v 114 115
v 115 116
v 116 117
v 117 118
v 118 119
v 119 120
v 120 121
v 121 122
v 122 123
v 123 124
v 124 125
v 125 126
v 126 127
v 127 128
v 128 129
v 129 130
v 130 131
v 131 132
v 132 133
v 133 134
v 134 135
v 135 136
v 136 137
v 137 138
v 138 139
v 139 140
v 140 141
v 141 142
v 142 143
v 143 144
v 144 145
v 145 146
v 146 147
v 147 148
v 148 149
v 149 150
v 150 151
v 151 152
v 152 153
v 153 154
v 154 155
v 155 156
v 156 157
v 157 158
v 158 159
v 159 160
v 160 161
v 161 162
v 162 163
v 163 164
v 164 165
v 165 166
v 166 167
v 167 168
v 168 169
v 169 170
v 170 171
v 171 172
v 172 173
v 173 174
v 174 175
v 175 176
v 176 177
v 177 178
v 178 179
v 179 180
v 180 181
v 181 182
v 182 183
v 183 184
v 184 185
v 185 186
v 186 187
v 187 188
v 188 189
v 189 190
v 190 191
v 191 192
v 192 193
v 193 194
v 194 195
v 195 196
v 196 197
v 197 198
v 198 199
v 199 0
v 200 1
v 201 2
v 202 3
v 203 4
v 204 5
v 205 6
v 206 7
v 207 8
v 208 9
v 209 10
v 210 11
v 211 12
v 212 13
v 213 14
v 214 15
v 215 16
v 216 17
v 217 18
v 218 19
v 219 20
v 220 21
v 221 22
v 222 23
v 223 24
v 224 25
v 225 26
v 226 27
v 227 28
v 228 29
v 229 30
v 230 31
v 231 32
v 232 33
v 233 34
v 234 35
v 235 36
v 236 37
v 237 38
v 238 39
v 239 40
v 240 41
v 241 42
v 242 43
v 243 44
v 244 45
v 245 46
v 246 47
v 247 48
v 248 49
v 249 50
v 250 51
v 251 52
v 252 53
v 253 54
v 254 55
v 255 56
v 256 57
v 257 58
v 258 59
v 259 60
v 260 61
v 261 62
v 262 63
v 263 64
v 264 65
v 265 66
v 266 67
v 267 68
v 268 69
v 269 70
v 270 71
v 271 72
v 272 73
v 273 74
v 274 75
v 275 76
v 276 77
v 277 78
v 278 79
v 279 80
v 280 81
v 281 82
v 282 83
v 283 84
v 284 85
v 285 86
v 286 87
v 287 88
v 288 89
v 289 90
v 290 91
v 291 92
v 292 93
v 293 94
v 294 95
v 295 96
v 296 97
v 297 98
v 298 99
v 299 100
v 300 101
v 301 102
v 302 103
v 303 104
v 304 105
v 305 106
v 306 107
v 307 108
v 308 109
v 309 110
v 310 111
v 311 112
v 312 113
v 313 114
v 314 115
v 315 116
v 316 117
v 317 118
v 318 119
v 319 120
v 320 121
v 321 122
v 322 123
v 323 124
v 324 125
v 325 126
v 326 127
v 327 128
v 328 129
v 329 130
v 330 131
v 331 132
v 332 133
v 333 134
v 334 135
v 335 136
v 336 137
v 337 138
v 338 139
v 339 140
v 340 141
v 341 142
v 342 143
v 343 144
v 344 145
v 345 146
v 346 147
v 347 148
v 348 149
v 349 150
v 350 151
v 351 152
v 352 153
v 353 154
v 354 155
v 355 156
v 356 157
v 357 158
v 358 159
v 359 160
v 360 161
v 361 162
v 362 163
v 363 164
v 364 165
v 365 166
v 366 167
v 367 168
v 368 169
v 369 170
v 370 171
v 371 172
v 372 173
v 373 174
v 374 175
v 375 176
v 376 177
v 377 178
v 378 179
v 379 180
v 380 181
v 381 182
v 382 183
v 383 184
v 384 185
v 385 186
v 386 187
v 387 188
v 388 189
v 389 190
v 390 191
v 391 192
v 392 193
v 393 194
v 394 195
v 395 196
v 396 197
v 397 198
v 398 199
v 399 0
v 400 1
v 401 2
v 402 3
v 403 4
v 404 5
v 405 6
v 406 7
v 407 8
v 408 9
v 409 10
v 410 11
v 411 12
v 412 13
v 413 14
v 414 15
v 415 16
v 416 17
v 417 18
v 418 19
v 419 20
v 420 21
v 421 22
v 422 23
v 423 24
v 424 25
v 425 26
v 426 27
v 427 28
v 428 29
v 429 30
v 430 31
v 431 32
v 432 33
v 433 34
v 434 35
v 435 36
v 436 37
v 437 38
v 438 39
v 439 40
v 440 41
v 441 42
v 442 43
v 443 44
v 444 45
v 445 46
v 446 47
v 447 48
v 448 49
v 449 50
v 450 51
v 451 52
v 452 53
v 453 54
v 454 55
v 455 56
v 456 57
v 457 58
v 458 59
v 459 60
v 460 61
v 461 62
v 462 63
v 463 64
v 464 65
v 465 66
v 466 67
v 467 68
v 468 69
v 469 70
v 470 71
v 471 72
v 472 73
v 473 74
v 474 75
v 475 76
v 476 77
v 477 78
v 478 79
v 479 80
v 480 81
v 481 82
v 482 83
v 483 84
v 484 85
v 485 86
v 486 87
v 487 88
v 488 89
v 489 90
v 490 91
v 491 92
v 492 93
v 493 94
v 494 95
v 495 96
v 496 97
v 497 98
v 498 99
v 499 100
v 500 101
v 501 102
v 502 103
v 503 104
v 504 105
v 505 106
v 506 107
v 507 108
v 508 109
v 509 110
v 510 111
v 511 112
v 512 113
v 513 114
v 514 115
v 515 116
v 516 117
v 517 118
v 518 119
v 519 120
v 520 121
v 521 122
v 522 123
v 523 124
v 524 125
v 525 126
v 526 127
v 527 128
v 528 129
v 529 130
v 530 131
v 531 132
v 532 133
v 533 134
v 534 135
v 535 136
v 536 137
v 537 138
v 538 139
v 539 140
v 540 141
v 541 142
v 542 143
v 543 144
v 544 145
v 545 146
v 546 147
v 547 148
v 548 149
v 549 150
v 550 151
v 551 152
v 552 153
v 553 154
v 554 155
v 555 156
v 556 157
v 557 158
v 558 159
v 559 160
v 560 161
v 561 162
v 562 163
v 563 164
v 564 165
v 565 166
v 566 167
v 567 168
v 568 169
v 569 170
v 570 171
v 571 172
v 572 173
v 573 174
v 574 175
v 575 176
v 576 177
v 577 178
v 578 179
v 579 180
v 580 181
v 581 182
v 582 183
v 583 184
v 584 185
v 585 186
v 586 187
v 587 188
v 588 189
v 589 190
v 590 191
v 591 192
v 592 193
v 593 194
v 594 195
v 595 196
v 596 197
v 597 198
v 598 199
v 599 0
v 600 1
v 601 2
v 602 3
v 603 4
v 604 5
v 605 6
v 606 7
v 607 8
v 608 9
v 609 10
v 610 11
v 611 12
v 612 13
v 613 14
v 614 15
v 615 16
v 616 17
v 617 18
v 618 19
v 619 20
v 620 21
v 621 22
v 622 23
v 623 24
v 624 25
v 625 26
v 626 27
v 627 28
v 628 29
v 629 30
v 630 31
v 631 32
v 632 33
v 633 34
v 634 35
v 635 36
v 636 37
v 637 38
v 638 39
v 639 40
v 640 41
v 641 42
v 642 43
v 643 44
v 644 45
v 645 46
v 646 47
v 647 48
v 648 49
v 649 50
v 650 51
v 651 52
v 652 53
v 653 54
v 654 55
v 655 56
v 656 57
v 657 58
v 658 59
v 659 60
v 660 61
v 661 62
v 662 63
v 663 64
v 664 65
v 665 66
v 666 67
v 667 68
v 668 69
v 669 70
v 670 71
v 671 72
v 672 73
v 673 74
v 674 75
v 675 76
v 676 77
v 677 78
v 678 79
v 679 80
v 680 81
v 681 82
v 682 83
v 683 84
v 684 85
v 685 86
v 686 87
v 687 88
v 688 89
v 689 90
v 690 91
v 691 92
v 692 93
v 693 94
v 694 95
v 695 96
v 696 97
v 697 98
v 698 99
v 699 100
v 700 101
v 701 102
v 702 103
v 703 104
v 704 105
v 705 106
v 706 107
v 707 108
v 708 109
v 709 110
v 710 111
v 711 112
v 712 113
v 713 114
v 714 115
v 715 116
v 716 117
v 717 118
v 718 119
v 719 120
v 720 121
v 721 122
v 722 123
v 723 124
v 724 125
v 725 126
v 726 127
v 727 128
v 728 129
v 729 130
v 730 131
v 731 132
v 732 133
v 733 134
v 734 135
v 735 136
v 736 137
v 737 138
v 738 139
v 739 140
v 740 141
v 741 142
v 742 143
v 743 144
v 744 145
v 745 146
v 746 147
v 747 148
v 748 149
v 749 150
v 750 151
v 751 152
v 752 153
v 753 154
v 754 155
v 755 156
v 756 157
v 757 158
v 758 159
v 759 160
v 760 161
v 761 162
v 762 163
v 763 164
v 764 165
v 765 166
v 766 167
v 767 168
v 768 169
v 769 170
v 770 171
v 771 172
v 772 173
v 773 174
v 774 175
v 775 176
v 776 177
v 777 178
v 778 179
v 779 180
v 780 181
v 781 182
v 782 183
v 783 184
v 784 185
v 785 186
v 786 187
v 787 188
v 788 189
v 789 190
v 790 191
v 791 192
v 792 193
v 793 194
v 794 195
v 795 196
v 796 197
v 797 198
v 798 199
v 799 0
v 800 1
v 801 2
v 802 3
v 803 4
v 804 5
v 805 6
v 806 7
v 807 8
v 808 9
v 809 10
v 810 11
v 811 12
v 812 13
v 813 14
v 814 15
v 815 16
v 816 17
v 817 18
v 818 19
v 819 20
v 820 21
v 821 22
v 822 23
v 823 24
v 824 25
v 825 26
v 826 27
v 827 28
v 828 29
v 829 30
v 830 31
v 831 32
v 832 33
v 833 34
v 834 35
v 835 36
v 836 37
v 837 38
v 838 39
v 839 40
v 840 41
v 841 42
v 842 43
v 843 44
v 844 45
v 845 46
v 846 47
v 847 48
v 848 49
v 849 50
v 850 51
v 851 52
v 852 53
v 853 54
v 854 55
v 855 56
v 856 57
v 857 58
v 858 59
v 859 60
v 860 61
v 861 62
v 862 63
v 863 64
v 864 65
v 865 66
v 866 67
v 867 68
v 868 69
v 869 70
v 870 71
v 871 72
v 872 73
v 873 74
v 874 75
v 875 76
v 876 77
v 877 78
v 878 79
v 879 80
v 880 81
v 881 82
v 882 83
v 883 84
v 884 85
v 885 86
v 886 87
v 887 88
v 888 89
v 889 90
v 890 91
v 891 92
v 892 93
v 893 94
v 894 95
v 895 96
v 896 97
v 897 98
v 898 99
v 899 100
v 900 101
v 901 102
v 902 103
v 903 104
v 904 105
v 905 106
v 906 107
v 907 108
v 908 109
v 909 110
v 910 111
v 911 112
v 912 113
v 913 114
v 914 115
v 915 116
v 916 117
v 917 118
v 918 119
v 919 120
v 920 121
v 921 122
v 922 123
v 923 124
v 924 125
v 925 126
v 926 127
v 927 128
v 928 129
v 929 130
v 930 131
v 931 132
v 932 133
v 933 134
v 934 135
v 935 136
v 936 137
v 937 138
v 938 139
v 939 140
v 940 141
v 941 142
v 942 143
v 943 144
v 944 145
v 945 146
v 946 147
v 947 148
v 948 149
v 949 150
v 950 151
v 951 152
v 952 153
v 953 154
v 954 155
v 955 156
v 956 157
v 957 158
v 958 159
v 959 160
v 960 161
v 961 162
v 962 163
v 963 164
v 964 165
v 965 166
v 966 167
v 967 168
v 968 169
v 969 170
v 970 171
v 971 172
v 972 173
v 973 174
v 974 175
v 975 176
v 976 177
v 977 178
v 978 179
v 979 180
v 980 181
v 981 182
v 982 183
v 983 184
v 984 185
v 985 186
v 986 187
v 987 188
v 988 189
v 989 190
v 990 191
v 991 192
v 992 193
v 993 194
v 994 195
v 995 196
v 996 197
v 997 198
v 998 199
v 999 0
v 1000 1
v 1001 2
v 1002 3
v 1003 4
v 1004 5
v 1005 6
v 1006 7
v 1007 8
v 1008 9
v 1009 10
v 1010 11
v 1011 12
v 1012 13
v 1013 14
v 1014 15
v 1015 16
v 1016 17
v 1017 18
v 1018 19
v 1019 20
v 1020 21
v 1021 22
v 1022 23
v 1023 24
v 1024 25
v 1025 26
v 1026 27
v 1027 28
v 1028 29
v 1029 30
v 1030 31
v 1031 32
v 1032 33
v 1033 34
v 1034 35
v 1035 36
v 1036 37
v 1037 38
v 1038 39
v 1039 40
v 1040 41
v 1041 42
v 1042 43
v 1043 44
v 1044 45
v 1045 46
v 1046 47
v 1047 48
v 1048 49
v 1049 50
v 1050 51
v 1051 52
v 1052 53
v 1053 54
v 1054 55
v 1055 56
v 1056 57
v 1057 58
v 1058 59
v 1059 60
v 1060 61
v 1061 62
v 1062 63
v 1063 64
v 1064 65
v 1065 66
v 1066 67
v 1067 68
v 1068 69
v 1069 70
v 1070 71
v 1071 72
v 1072 73
v 1073 74
v 1074 75
v 1075 76
v 1076 77
v 1077 78
v 1078 79
v 1079 80
v 1080 81
v 1081 82
v 1082 83
v 1083 84
v 1084 85
v 1085 86
v 1086 87
v 1087 88
v 1088 89
v 1089 90
v 1090 91
v 1091 92
v 1092 93
v 1093 94
v 1094 95
v 1095 96
v 1096 97
v 1097 98
v 1098 99
v 1099 100
v 1100 101
v 1101 102
v 1102 103
v 1103 104
v 1104 105
v 1105 106
v 1106 107
v 1107 108
v 1108 109
v 1109 110
v 1110 111
v 1111 112
v 1112 113
v 1113 114
v 1114 115
v 1115 116
v 1116 117
v 1117 118
v 1118 119
v 1119 120
v 1120 121
v 1121 122
v 1122 123
v 1123 124
v 1124 125
v 1125 126
v 1126 127
v 1127 128
v 1128 129
v 1129 130
v 1130 131
v 1131 132
v 1132 133
v 1133 134
v 1134 135
v 1135 136
v 1136 137
v 1137 138
v 1138 139
v 1139 140
v 1140 141
v 1141 142
v 1142 143
v 1143 144
v 1144 145
v 1145 146
v 1146 147
v 1147 148
v 1148 149
v 1149 150
v 1150 151
v 1151 152
v 1152 153
v 1153 154
v 1154 155
v 1155 156
v 1156 157
v 1157 158
v 1158 159
v 1159 160
v 1160 161
v 1161 162
v 1162 163
v 1163 164
v 1164 165
v 1165 166
v 1166 167
v 1167 168
v 1168 169
v 1169 170
v 1170 171
v 1171 172
v 1172 173
v 1173 174
v 1174 175
v 1175 176
v 1176 177
v 1177 178
v 1178 179
v 1179 180
v 1180 181
v 1181 182
v 1182 183
v 1183 184
v 1184 185
v 1185 186
v 1186 187
v 1187 188
v 1188 189
v 1189 190
v 1190 191
v 1191 192
v 1192 193
v 1193 194
v 1194 195
v 1195 196
v 1196 197
v 1197 198
v 1198 199
v 1199 0
v 1200 1
v 1201 2
v 1202 3
v 1203 4
v 1204 5
v 1205 6
v 1206 7
v 1207 8
v 1208 9
v 1209 10
v 1210 11
v 1211 12
v 1212 13
v 1213 14
v 1214 15
v 1215 16
v 1216 17
v 1217 18
v 1218 19
v 1219 20
v 1220 21
v 1221 22
v 1222 23
v 1223 24
v 1224 25
v 1225 26
v 1226 27
v 1227 28
v 1228 29
v 1229 30
v 1230 31
v 1231 32
v 1232 33
v 1233 34
v 1234 35
v 1235 36
v 1236 37
v 1237 38
v 1238 39
v 1239 40
v 1240 41
v 1241 42
v 1242 43
v 1243 44
v 1244 45
v 1245 46
v 1246 47
v 1247 48
v 1248 49
v 1249 50
v 1250 51
v 1251 52
v 1252 53
v 1253 54
v 1254 55
v 1255 56
v 1256 57
v 1257 58
v 1258 59
v 1259 60
v 1260 61
v 1261 62
v 1262 63
v 1263 64
v 1264 65
v 1265 66
v 1266 67
v 1267 68
v 1268 69
v 1269 70
v 1270 71
v 1271 72
v 1272 73
v 1273 74
v 1274 75
v 1275 76
v 1276 77
v 1277 78
v 1278 79
v 1279 80
v 1280 81
v 1281 82
v 1282 83
v 1283 84
v 1284 85
v 1285 86
v 1286 87
v 1287 88
v 1288 89
v 1289 90
v 1290 91
v 1291 92
v 1292 93
v 1293 94
v 1294 95
v 1295 96
v 1296 97
v 1297 98
v 1298 99
v 1299 100
v 1300 101
v 1301 102
v 1302 103
v 1303 104
v 1304 105
v 1305 106
v 1306 107
v 1307 108
v 1308 109
v 1309 110
v 1310 111
v 1311 112
v 1312 113
v 1313 114
v 1314 115
v 1315 116
v 1316 117
v 1317 118
v 1318 119
v 1319 120
v 1320 121
v 1321 122
v 1322 123
v 1323 124
v 1324 125
v 1325 126
v 1326 127
v 1327 128
v 1328 129
v 1329 130
v 1330 131
v 1331 132
v 1332 133
v 1333 134
v 1334 135
v 1335 136
v 1336 137
v 1337 138
v 1338 139
v 1339 140
v 1340 141
v 1341 142
v 1342 143
v 1343 144
v 1344 145
v 1345 146
v 1346 147
v 1347 148
v 1348 149
v 1349 150
v 1350 151
v 1351 152
v 1352 153
v 1353 154
v 1354 155
v 1355 156
v 1356 157
v 1357 158
v 1358 159
v 1359 160
v 1360 161
v 1361 162
v 1362 163
v 1363 164
v 1364 165
v 1365 166
v 1366 167
v 1367 168
v 1368 169
v 1369 170
v 1370 171
v 1371 172
v 1372 173
v 1373 174
v 1374 175
v 1375 176
v 1376 177
v 1377 178
v 1378 179
v 1379 180
v 1380 181
v 1381 182
v 1382 183
v 1383 184
v 1384 185
v 1385 186
v 1386 187
v 1387 188
v 1388 189
v 1389 190
v 1390 191
v 1391 192
v 1392 193
v 1393 194
v 1394 195
v 1395 196
v 1396 197
v 1397 198
v 1398 199
v 1399 0
v 1400 1
v 1401 2
v 1402 3
v 1403 4
v 1404 5
v 1405 6
v 1406 7
v 1407 8
v 1408 9
v 1409 10
v 1410 11
v 1411 12
v 1412 13
v 1413 14
v 1414 15
v 1415 16
v 1416 17
v 1417 18
v 1418 19
v 1419 20
v 1420 21
v 1421 22
v 1422 23
v 1423 24
v 1424 25
v 1425 26
v 1426 27
v 1427 28
v 1428 29
v 1429 30
v 1430 31
v 1431 32
v 1432 33
v 1433 34
v 1434 35
v 1435 36
v 1436 37
v 1437 38
v 1438 39
v 1439 40
v 1440 41
v 1441 42
v 1442 43
v 1443 44
v 1444 45
v 1445 46
v 1446 47
v 1447 48
v 1448 49
v 1449 50
v 1450 51
v 1451 52
v 1452 53
v 1453 54
v 1454 55
v 1455 56
v 1456 57
v 1457 58
v 1458 59
v 1459 60
v 1460 61
v 1461 62
v 1462 63
v 1463 64
v 1464 65
v 1465 66
v 1466 67
v 1467 68
v 1468 69
v 1469 70
v 1470 71
v 1471 72
v 1472 73
v 1473 74
v 1474 75
v 1475 76
v 1476 77
v 1477 78
v 1478 79
v 1479 80
v 1480 81
v 1481 82
v 1482 83
v 1483 84
v 1484 85
v 1485 86
v 1486 87
v 1487 88
v 1488 89
v 1489 90
v 1490 91
v 1491 92
v 1492 93
v 1493 94
v 1494 95
v 1495 96
v 1496 97
v 1497 98
v 1498 99
v 1499 100
v 1500 101
v 1501 102
v 1502 103
v 1503 104
v 1504 105
v 1505 106
v 1506 107
v 1507 108
v 1508 109
v 1509 110
v 1510 111
v 1511 112
v 1512 113
v 1513 114
v 1514 115
v 1515 116
v 1516 117
v 1517 118
v 1518 119
v 1519 120
v 1520 121
v 1521 122
v 1522 123
v 1523 124
v 1524 125
v 1525 126
v 1526 127
v 1527 128
v 1528 129
v 1529 130
v 1530 131
v 1531 132
v 1532 133
v 1533 134
v 1534 135
v 1535 136
v 1536 137
v 1537 138
v 1538 139
v 1539 140
v 1540 141
v 1541 142
v 1542 143
v 1543 144
v 1544 145
v 1545 146
v 1546 147
v 1547 148
v 1548 149
v 1549 150
v 1550 151
v 1551 152
v 1552 153
v 1553 154
v 1554 155
v 1555 156
v 1556 157
v 1557 158
v 1558 159
v 1559 160
v 1560 161
v 1561 162
v 1562 163
v 1563 164
v 1564 165
v 1565 166
v 1566 167
v 1567 168
v 1568 169
v 1569 170
v 1570 171
v 1571 172
v 1572 173
v 1573 174
v 1574 175
v 1575 176
v 1576 177
v 1577 178
v 1578 179
v 1579 180
v 1580 181
v 1581 182
v 1582 183
v 1583 184
v 1584 185
v 1585 186
v 1586 187
v 1587 188
v 1588 189
v 1589 190
v 1590 191
v 1591 192
v 1592 193
v 1593 194
v 1594 195
v 1595 196
v 1596 197
v 1597 198
v 1598 199
v 1599 0
v 1600 1
v 1601 2
v 1602 3
v 1603 4
v 1604 5
v 1605 6
v 1606 7
v 1607 8
v 1608 9
v 1609 10
v 1610 11
v 1611 12
v 1612 13
v 1613 14
v 1614 15
v 1615 16
v 1616 17
v 1617 18
v 1618 19
v 1619 20
v 1620 21
v 1621 22
v 1622 23
v 1623 24
v 1624 25
v 1625 26
v 1626 27
v 1627 28
v 1628 29
v 1629 30
v 1630 31
v 1631 32
v 1632 33
v 1633 34
v 1634 35
v 1635 36
v 1636 37
v 1637 38
v 1638 39
v 1639 40
v 1640 41
v 1641 42
v 1642 43
v 1643 44
v 1644 45
v 1645 46
v 1646 47
v 1647 48
v 1648 49
v 1649 50
v 1650 51
v 1651 52
v 1652 53
v 1653 54
v 1654 55
v 1655 56
v 1656 57
v 1657 58
v 1658 59
v 1659 60
v 1660 61
v 1661 62
v 1662 63
v 1663 64
v 1664 65
v 1665 66
v 1666 67
v 1667 68
v 1668 69
v 1669 70
v 1670 71
v 1671 72
v 1672 73
v 1673 74
v 1674 75
v 1675 76
v 1676 77
v 1677 78
v 1678 79
v 1679 80
v 1680 81
v 1681 82
v 1682 83
v 1683 84
v 1684 85
v 1685 86
v 1686 87
v 1687 88
v 1688 89
v 1689 90
v 1690 91
v 1691 92
v 1692 93
v 1693 94
v 1694 95
v 1695 96
v 1696 97
v 1697 98
v 1698 99
v 1699 100
v 1700 101
v 1701 102
v 1702 103
v 1703 104
v 1704 105
v 1705 106
v 1706 107
v 1707 108
v 1708 109
v 1709 110
v 1710 111
v 1711 112
v 1712 113
v 1713 114
v 1714 115
v 1715 116
v 1716 117
v 1717 118
v 1718 119
v 1719 120
v 1720 121
v 1721 122
v 1722 123
v 1723 124
v 1724 125
v 1725 126
v 1726 127
v 1727 128
v 1728 129
v 1729 130
v 1730 131
v 1731 132
v 1732 133
v 1733 134
v 1734 135
v 1735 136
v 1736 137
v 1737 138
v 1738 139
v 1739 140
v 1740 141
v 1741 142
v 1742 143
v 1743 144
v 1744 145
v 1745 146
v 1746 147
v 1747 148
v 1748 149
v 1749 150
v 1750 151
v 1751 152
v 1752 153
v 1753 154
v 1754 155
v 1755 156
v 1756 157
v 1757 158
v 1758 159
v 1759 160
v 1760 161
v 1761 162
v 1762 163
v 1763 164
v 1764 165
v 1765 166
v 1766 167
v 1767 168
v 1768 169
v 1769 170
v 1770 171
v 1771 172
v 1772 173
v 1773 174
v 1774 175
v 1775 176
v 1776 177
v 1777 178
v 1778 179
v 1779 180
v 1780 181
v 1781 182
v 1782 183
v 1783 184
v 1784 185
v 1785 186
v 1786 187
v 1787 188
v 1788 189
v 1789 190
v 1790 191
v 1791 192
v 1792 193
v 1793 194
v 1794 195
v 1795 196
v 1796 197
v 1797 198
v 1798 199
v 1799 0
v 1800 1
v 1801 2
v 1802 3
v 1803 4
v 1804 5
v 1805 6
v 1806 7
v 1807 8
v 1808 9
v 1809 10
v 1810 11
v 1811 12
v 1812 13
v 1813 14
v 1814 15
v 1815 16
v 1816 17
v 1817 18
v 1818 19
v 1819 20
v 1820 21
v 1821 22
v 1822 23
v 1823 24
v 1824 25
v 1825 26
v 1826 27
v 1827 28
v 1828 29
v 1829 30
v 1830 31
v 1831 32
v 1832 33
v 1833 34
v 1834 35
v 1835 36
v 1836 37
v 1837 38
v 1838 39
v 1839 40
v 1840 41
v 1841 42
v 1842 43
v 1843 44
v 1844 45
v 1845 46
v 1846 47
v 1847 48
v 1848 49
v 1849 50
v 1850 51
v 1851 52
v 1852 53
v 1853 54
v 1854 55
v 1855 56
v 1856 57
v 1857 58
v 1858 59
v 1859 60
v 1860 61
v 1861 62
v 1862 63
v 1863 64
v 1864 65
v 1865 66
v 1866 67
v 1867 68
v 1868 69
v 1869 70
v 1870 71
v 1871 72
v 1872 73
v 1873 74
v 1874 75
v 1875 76
v 1876 77
v 1877 78
v 1878 79
v 1879 80
v 1880 81
v 1881 82
v 1882 83
e 2 1
e 4 3
e 6 5
e 352 6
e 549 6
e 8 7
e 276 8
e 277 8
e 10 9
e 703 10
e 12 11
e 229 12
e 14 13
e 196 14
e 16 15
e 256 16
e 18 17
e 242 18
e 20 19
e 112 20
e 132 20
e 461 20
e 22 21
e 24 23
e 595 24
e 26 25
e 122 26
e 28 27
e 796 28
e 30 29
e 1040 30
e 32 31
e 878 32
e 34 33
e 18 34
e 36 35
e 38 37
e 805 38
e 40 39
e 635 40
e 42 41
e 2 42
e 44 43
e 46 45
e 264 46
e 48 47
e 162 48
e 50 49
e 359 50
e 52 51
e 804 52
e 54 53
e 1403 54
e 56 55
e 27 56
e 58 57
e 699 58
e 60 59
e 1251 60
e 62 61
e 64 63
e 66 65
e 1236 66
e 68 67
e 343 68
e 70 69
e 72 71
e 1184 72
e 74 73
e 22 74
e 18 75
e 77 76
e 603 77
e 79 78
e 461 79
e 81 80
e 975 81
e 83 82
e 365 83
e 85 84
e 132 85
e 87 86
e 460 87
e 89 88
e 1660 89
e 91 90
e 18 91
e 35 92
e 94 93
e 18 94
e 96 95
e 549 96
e 98 97
e 1065 98
e 100 99
e 56 100
e 102 101
e 552 102
e 104 103
e 279 104
e 106 105
e 2 106
e 16 107
e 109 108
e 111 110
e 635 111
e 113 112
e 115 114
e 116 114
e 18 117
e 119 118
e 6 119
e 121 120
e 123 122
e 1293 123
e 125 124
e 127 126
e 736 127
e 32 128
e 130 129
e 229 130
e 132 131
e 519 132
e 56 133
e 135 134
e 137 136
e 175 137
e 100 138
e 126 139
e 140 139
e 127 140
e 142 141
e 144 143
e 18 144
e 146 145
e 598 146
e 22 147
e 149 148
e 216 149
e 151 150
e 153 152
e 837 153
e 6 154
e 156 155
e 539 156
e 158 157
e 363 158
e 114 159
e 42 160
e 162 161
e 674 162
e 164 163
e 256 164
e 166 165
e 1037 166
e 56 167
e 169 168
e 18 169
e 701 169
e 171 170
e 617 171
e 173 172
e 18 173
e 175 174
e 1120 175
e 177 176
e 32 177
e 179 178
e 1393 179
e 164 180
e 12 181
e 183 182
e 1305 183
e 61 184
e 96 185
e 187 186
e 436 187
e 189 188
e 854 189
e 191 190
e 1308 191
e 193 192
e 256 193
e 132 194
e 196 195
e 381 196
e 603 196
e 198 197
e 580 198
e 200 199
e 1704 200
e 202 201
e 32 202
e 204 203
e 205 203
e 207 206
e 153 207
e 186 207
e 9 208
e 210 209
e 54 211
e 213 212
e 1275 213
e 1871 214
e 216 215
e 1719 216
e 218 217
e 132 218
e 220 219
e 380 220
e 222 221
e 918 222
e 224 223
e 239 224
e 124 225
e 227 226
e 229 228
e 580 229
e 231 230
e 207 232
e 234 233
e 250 234
e 236 235
e 329 236
e 196 237
e 239 238
e 549 239
e 241 240
e 446 241
e 137 242
e 244 243
e 1514 244
e 246 245
e 75 246
e 248 247
e 189 248
e 149 249
e 252 251
e 119 252
e 236 253
e 12 254
e 256 255
e 420 256
e 258 257
e 580 258
e 144 259
e 124 260
e 262 261
e 263 261
e 1194 262
e 132 264
e 266 265
e 1237 266
e 20 267
e 18 268
e 230 269
e 42 270
e 272 271
e 1882 272
e 274 273
e 130 275
e 733 276
e 614 277
e 279 278
e 338 279
e 46 280
e 35 281
e 175 282
e 284 283
e 286 285
e 561 286
e 288 287
e 293 288
e 279 289
e 291 290
e 293 292
e 295 294
e 297 296
e 299 298
e 96 300
e 302 301
e 560 302
e 304 303
e 52 305
e 307 306
e 1412 307
e 20 308
e 309 308
e 310 308
e 20 309
e 241 310
e 312 311
e 685 312
e 314 313
e 1080 314
e 316 315
e 318 317
e 461 318
e 320 319
e 891 320
e 322 321
e 324 323
e 1742 324
e 326 325
e 327 325
e 196 326
e 396 327
e 144 328
e 256 329
e 166 330
e 332 331
e 461 332
e 334 333
e 340 334
e 6 335
e 132 336
e 338 337
e 808 338
e 98 339
e 342 341
e 1508 342
e 46 343
e 345 344
e 1681 345
e 347 346
e 349 348
e 364 349
e 104 350
e 352 351
e 46 353
e 354 353
e 147 355
e 357 356
e 1041 357
e 1042 357
e 359 358
e 16 359
e 10 360
e 6 361
e 363 362
e 401 363
e 365 364
e 1664 365
e 367 366
e 162 367
e 132 368
e 370 369
e 628 370
e 372 371
e 579 372
e 580 372
e 374 373
e 259 375
e 377 376
e 701 377
e 216 378
e 380 379
e 523 380
e 1872 381
e 271 382
e 384 383
e 164 384
e 68 385
e 348 386
e 388 387
e 279 388
e 390 389
e 901 390
e 392 391
e 638 392
e 359 393
e 395 394
e 359 395
e 397 396
e 830 397
e 399 398
e 543 399
e 401 400
e 1628 401
e 403 402
e 87 403
e 264 403
e 405 404
e 1258 405
e 407 406
e 881 407
e 409 408
e 905 409
e 239 410
e 164 411
e 413 412
e 879 413
e 415 414
e 1251 415
e 417 416
e 1795 417
e 419 418
e 946 419
e 213 420
e 422 421
e 359 423
e 425 424
e 648 425
e 1837 425
e 427 426
e 884 427
e 429 428
e 359 430
e 432 431
e 326 433
e 1873 434
e 436 435
e 873 436
e 124 437
e 439 438
e 56 440
e 442 441
e 54 442
e 87 443
e 32 444
e 446 445
e 256 446
e 448 447
e 216 448
e 450 449
e 1454 450
e 377 451
e 10 452
e 454 453
e 171 454
e 456 455
e 175 456
e 458 457
e 207 459
e 209 461
e 463 462
e 856 463
e 357 464
e 173 465
e 104 466
e 468 467
e 216 468
e 46 469
e 471 470
e 1875 471
e 46 472
e 474 473
e 622 474
e 463 475
e 428 476
e 60 477
e 479 478
e 258 479
e 481 480
e 484 481
e 166 482
e 104 483
e 256 484
e 486 485
e 543 486
e 407 487
e 22 488
e 490 489
e 492 491
e 461 492
e 216 493
e 495 494
e 496 494
e 541 495
e 812 496
e 498 497
e 422 499
e 128 500
e 461 501
e 503 502
e 248 503
e 501 504
e 20 505
e 20 506
e 79 507
e 501 508
e 344 509
e 510 509
e 16 510
e 461 511
e 501 512
e 144 513
e 515 514
e 1589 515
e 32 516
e 314 517
e 461 518
e 520 519
e 156 521
e 216 522
e 454 524
e 525 524
e 10 526
e 42 527
e 130 528
e 530 529
e 852 530
e 1874 531
e 533 532
e 32 533
e 535 534
e 104 535
e 196 535
e 425 536
e 130 537
e 539 538
e 15 539
e 293 540
e 449 541
e 543 542
e 1356 543
e 32 544
e 546 545
e 96 546
e 42 547
e 264 547
e 549 548
e 1876 549
e 551 550
e 518 551
e 322 552
e 554 553
e 258 554
e 83 555
e 557 556
e 558 556
e 106 559
e 265 560
e 423 562
e 564 563
e 566 565
e 555 566
e 177 567
e 569 568
e 571 570
e 132 571
e 216 572
e 574 573
e 365 574
e 61 575
e 191 576
e 578 577
e 622 578
e 242 579
e 35 580
e 539 581
e 425 582
e 326 583
e 584 583
e 535 585
e 587 586
e 589 588
e 279 589
e 591 590
e 405 592
e 594 593
e 939 594
e 198 595
e 196 596
e 597 596
e 256 597
e 6 598
e 342 599
e 18 600
e 602 601
e 669 602
e 597 603
e 20 604
e 309 604
e 606 605
e 608 607
e 6 608
e 258 609
e 124 610
e 216 611
e 613 612
e 144 615
e 32 616
e 256 617
e 372 618
e 620 619
e 622 621
e 256 622
e 175 623
e 625 624
e 626 624
e 179 627
e 630 629
e 826 630
e 632 631
e 1177 632
e 634 633
e 531 635
e 556 636
e 637 636
e 639 638
e 216 639
e 641 640
e 1721 641
e 130 642
e 241 643
e 645 644
e 1592 645
e 264 646
e 648 647
e 1168 648
e 348 649
e 413 650
e 652 651
e 1004 652
e 1005 652
e 654 653
e 656 655
e 427 656
e 137 657
e 162 658
e 660 659
e 661 659
e 229 662
e 642 662
e 664 663
e 256 664
e 666 665
e 195 667
e 669 668
e 671 670
e 672 670
e 15 673
e 675 674
e 494 675
e 677 676
e 1162 677
e 679 678
e 635 680
e 682 681
e 922 682
e 106 683
e 685 684
e 18 685
e 162 686
e 18 687
e 173 688
e 164 689
e 691 690
e 107 691
e 693 692
e 97 693
e 177 694
e 87 695
e 258 696
e 698 697
e 1165 698
e 96 699
e 471 700
e 241 701
e 144 702
e 104 704
e 706 705
e 233 706
e 10 707
e 436 708
e 710 709
e 12 710
e 357 711
e 713 712
e 164 714
e 484 715
e 207 716
e 718 717
e 486 718
e 718 719
e 326 720
e 239 721
e 723 722
e 34 723
e 106 724
e 42 725
e 727 726
e 948 727
e 218 728
e 730 729
e 732 731
e 279 732
e 175 734
e 56 735
e 407 737
e 739 738
e 191 739
e 199 740
e 363 741
e 56 742
e 47 743
e 216 744
e 746 745
e 1114 746
e 171 747
e 749 748
e 489 750
e 288 751
e 753 752
e 121 753
e 755 754
e 955 755
e 162 756
e 758 757
e 377 759
e 403 759
e 207 760
e 279 761
e 763 762
e 162 763
e 480 764
e 8 765
e 144 766
e 768 767
e 770 769
e 454 770
e 691 771
e 188 772
e 774 773
e 560 774
e 776 775
e 196 776
e 241 776
e 9 777
e 779 778
e 461 780
e 638 781
e 384 782
e 685 782
e 279 783
e 680 784
e 216 785
e 216 786
e 104 787
e 367 788
e 790 789
e 258 791
e 793 792
e 556 793
e 177 794
e 518 795
e 797 796
e 279 798
e 800 799
e 1679 800
e 1680 800
e 802 801
e 941 802
e 804 803
e 288 804
e 807 806
e 1382 807
e 1333 808
e 259 809
e 811 810
e 1251 811
e 1262 812
e 814 813
e 132 814
e 193 815
e 12 816
e 818 817
e 132 818
e 820 819
e 405 821
e 454 822
e 824 823
e 216 824
e 826 825
e 1880 826
e 828 827
e 428 828
e 241 829
e 359 831
e 555 832
e 162 833
e 77 834
e 463 835
e 837 836
e 1695 837
e 839 838
e 258 840
e 66 841
e 96 842
e 6 843
e 845 844
e 783 846
e 724 847
e 800 848
e 850 849
e 179 850
e 852 851
e 384 853
e 855 854
e 1038 856
e 800 857
e 216 858
e 594 859
e 861 860
e 196 861
e 279 862
e 605 863
e 216 864
e 405 865
e 556 866
e 637 866
e 868 867
e 1108 868
e 72 869
e 871 870
e 811 872
e 875 874
e 216 876
e 42 877
e 880 879
e 463 880
e 445 881
e 293 882
e 216 883
e 861 885
e 388 886
e 888 887
e 367 888
e 32 889
e 193 890
e 255 891
e 730 892
e 390 893
e 32 894
e 216 895
e 417 896
e 898 897
e 427 899
e 663 900
e 132 901
e 903 902
e 698 904
e 1164 905
e 18 906
e 258 907
e 326 908
e 207 909
e 911 910
e 122 911
e 106 912
e 177 913
e 515 914
e 35 915
e 917 916
e 919 918
e 920 919
e 463 920
e 523 921
e 923 922
e 835 923
e 196 924
e 926 925
e 1447 926
e 649 927
e 216 928
e 662 929
e 931 930
e 332 931
e 20 932
e 363 933
e 793 934
e 471 935
e 937 936
e 367 938
e 597 939
e 12 940
e 288 941
e 807 942
e 795 943
e 945 944
e 826 946
e 947 946
e 597 948
e 603 949
e 951 950
e 970 951
e 953 952
e 1003 953
e 834 954
e 956 955
e 463 956
e 132 957
e 959 958
e 1439 959
e 551 960
e 239 961
e 351 962
e 415 963
e 216 964
e 966 965
e 207 966
e 850 967
e 969 968
e 971 970
e 401 971
e 973 972
e 1165 973
e 723 974
e 1700 975
e 18 976
e 247 977
e 248 977
e 216 978
e 218 979
e 42 980
e 982 981
e 258 982
e 826 983
e 106 984
e 216 985
e 258 986
e 258 987
e 989 988
e 216 990
e 992 991
e 651 992
e 941 993
e 995 994
e 861 996
e 18 997
e 999 998
e 1116 999
e 6 1000
e 1002 1001
e 555 1002
e 510 1003
e 164 1004
e 1082 1005
e 87 1006
e 256 1007
e 427 1008
e 716 1009
e 1011 1010
e 79 1012
e 179 1013
e 543 1014
e 716 1015
e 1017 1016
e 18 1017
e 10 1018
e 167 1019
e 34 1020
e 1022 1021
e 1034 1022
e 367 1023
e 367 1024
e 74 1025
e 66 1026
e 258 1027
e 603 1028
e 207 1029
e 314 1030
e 264 1031
e 510 1032
e 1034 1033
e 121 1034
e 1036 1035
e 754 1036
e 233 1037
e 1039 1038
e 198 1040
e 247 1043
e 248 1043
e 189 1044
e 200 1045
e 124 1046
e 1048 1047
e 643 1049
e 1050 1049
e 348 1050
e 1052 1051
e 501 1053
e 510 1054
e 776 1055
e 1057 1056
e 17 1058
e 471 1059
e 179 1060
e 216 1061
e 124 1062
e 1064 1063
e 326 1064
e 1834 1065
e 315 1066
e 1067 1066
e 1069 1068
e 359 1070
e 25 1071
e 312 1071
e 724 1072
e 1017 1073
e 1075 1074
e 196 1075
e 388 1076
e 990 1077
e 2 1078
e 1080 1079
e 463 1080
e 1082 1081
e 1531 1082
e 137 1083
e 623 1084
e 322 1085
e 921 1086
e 216 1087
e 207 1088
e 1059 1089
e 1090 1089
e 1004 1090
e 374 1091
e 20 1092
e 1094 1093
e 1096 1095
e 1098 1097
e 749 1098
e 962 1099
e 448 1100
e 763 1101
e 342 1102
e 875 1103
e 1104 1103
e 1106 1105
e 1562 1106
e 685 1107
e 647 1109
e 804 1110
e 239 1111
e 455 1112
e 858 1112
e 380 1113
e 160 1115
e 1117 1116
e 54 1118
e 737 1119
e 1639 1120
e 56 1121
e 367 1122
e 826 1123
e 1125 1124
e 854 1125
e 96 1126
e 20 1127
e 1129 1128
e 969 1130
e 66 1131
e 648 1132
e 1134 1133
e 850 1135
e 438 1136
e 677 1137
e 288 1138
e 196 1139
e 536 1140
e 132 1141
e 380 1142
e 1144 1143
e 615 1145
e 132 1146
e 405 1147
e 1149 1148
e 648 1150
e 315 1151
e 198 1152
e 179 1153
e 563 1154
e 1156 1155
e 388 1157
e 1159 1158
e 861 1160
e 510 1161
e 826 1163
e 83 1164
e 1166 1165
e 1878 1166
e 374 1167
e 962 1169
e 22 1170
e 875 1171
e 832 1172
e 948 1173
e 621 1174
e 132 1175
e 374 1176
e 1179 1178
e 597 1180
e 14 1181
e 615 1182
e 1184 1183
e 164 1185
e 241 1186
e 564 1187
e 1188 1187
e 463 1188
e 255 1189
e 10 1190
e 207 1191
e 156 1192
e 1194 1193
e 132 1195
e 556 1196
e 1114 1196
e 216 1197
e 461 1198
e 216 1199
e 454 1200
e 525 1200
e 1202 1201
e 1204 1203
e 6 1205
e 179 1206
e 207 1207
e 312 1208
e 1210 1209
e 1257 1210
e 166 1211
e 377 1212
e 18 1213
e 97 1214
e 34 1215
e 425 1216
e 894 1217
e 1218 1217
e 1084 1218
e 202 1219
e 1220 1219
e 42 1220
e 264 1220
e 222 1221
e 111 1222
e 382 1223
e 1049 1224
e 1226 1225
e 1228 1227
e 81 1229
e 539 1230
e 137 1231
e 124 1232
e 255 1233
e 255 1234
e 134 1235
e 293 1236
e 1571 1237
e 175 1238
e 196 1239
e 186 1240
e 533 1241
e 546 1241
e 241 1242
e 1244 1243
e 117 1245
e 727 1245
e 828 1246
e 288 1247
e 66 1248
e 327 1249
e 941 1250
e 427 1251
e 12 1252
e 1044 1253
e 91 1254
e 546 1255
e 1256 1255
e 1187 1257
e 1260 1259
e 193 1261
e 1879 1262
e 1264 1263
e 826 1264
e 12 1265
e 971 1266
e 454 1267
e 581 1268
e 1175 1269
e 264 1270
e 1271 1270
e 1273 1272
e 710 1274
e 1877 1275
e 216 1276
e 1278 1277
e 776 1279
e 1280 1279
e 6 1281
e 1283 1282
e 348 1283
e 867 1284
e 162 1285
e 359 1286
e 216 1287
e 876 1288
e 438 1289
e 89 1290
e 32 1291
e 662 1292
e 405 1294
e 691 1295
e 791 1296
e 56 1297
e 18 1298
e 1211 1299
e 454 1300
e 1302 1301
e 216 1303
e 96 1304
e 1187 1305
e 1307 1306
e 1577 1308
e 501 1309
e 68 1310
e 67 1311
e 258 1312
e 1314 1313
e 1418 1314
e 388 1315
e 111 1316
e 130 1317
e 1319 1318
e 543 1319
e 77 1320
e 1098 1321
e 1323 1322
e 1325 1324
e 315 1326
e 1328 1327
e 710 1329
e 42 1330
e 1332 1331
e 1360 1332
e 1588 1333
e 539 1334
e 1336 1335
e 1034 1337
e 46 1338
e 1339 1338
e 1689 1339
e 891 1340
e 1342 1341
e 556 1343
e 436 1344
e 12 1345
e 367 1346
e 130 1347
e 1349 1348
e 32 1350
e 46 1351
e 207 1352
e 44 1353
e 279 1354
e 531 1355
e 597 1355
e 597 1356
e 207 1357
e 177 1358
e 1319 1359
e 137 1361
e 293 1362
e 515 1363
e 992 1364
e 1164 1365
e 179 1366
e 1000 1366
e 834 1367
e 826 1368
e 293 1369
e 18 1370
e 106 1371
e 164 1372
e 12 1373
e 1137 1374
e 1376 1375
e 724 1377
e 207 1378
e 982 1379
e 216 1380
e 539 1381
e 659 1382
e 207 1383
e 239 1383
e 1355 1384
e 286 1385
e 549 1386
e 216 1387
e 279 1388
e 66 1389
e 680 1390
e 1184 1391
e 793 1392
e 46 1394
e 875 1395
e 77 1396
e 1397 1396
e 124 1398
e 1400 1399
e 216 1400
e 800 1401
e 248 1402
e 503 1402
e 288 1404
e 603 1405
e 1085 1406
e 1212 1407
e 1031 1408
e 1410 1409
e 471 1411
e 146 1413
e 22 1414
e 196 1415
e 1417 1416
e 1418 1416
e 83 1418
e 1420 1419
e 115 1420
e 716 1421
e 258 1422
e 650 1423
e 1425 1424
e 153 1425
e 198 1426
e 111 1427
e 106 1428
e 516 1429
e 46 1430
e 970 1431
e 783 1432
e 279 1433
e 132 1434
e 30 1435
e 224 1436
e 146 1437
e 367 1438
e 1441 1440
e 16 1441
e 395 1442
e 1444 1443
e 42 1445
e 191 1446
e 1784 1447
e 168 1448
e 1251 1449
e 805 1450
e 1064 1451
e 348 1452
e 850 1453
e 146 1455
e 196 1456
e 1314 1457
e 603 1458
e 868 1459
e 1461 1460
e 106 1462
e 638 1463
e 594 1464
e 132 1465
e 581 1466
e 1283 1467
e 312 1468
e 539 1469
e 195 1470
e 63 1471
e 214 1471
e 946 1472
e 130 1473
e 641 1474
e 198 1475
e 179 1476
e 216 1477
e 321 1478
e 20 1479
e 10 1480
e 348 1481
e 876 1482
e 18 1483
e 691 1484
e 826 1485
e 32 1486
e 252 1487
e 130 1488
e 52 1489
e 255 1490
e 8 1491
e 1492 1491
e 216 1493
e 1335 1494
e 179 1495
e 216 1496
e 18 1497
e 357 1498
e 35 1499
e 649 1500
e 1502 1501
e 216 1503
e 198 1504
e 54 1505
e 1507 1506
e 1510 1509
e 42 1511
e 603 1512
e 22 1513
e 258 1515
e 239 1516
e 536 1517
e 1519 1518
e 357 1519
e 6 1520
e 1106 1521
e 662 1522
e 1406 1523
e 793 1524
e 56 1525
e 413 1526
e 1528 1527
e 1811 1528
e 144 1529
e 214 1530
e 183 1532
e 49 1533
e 746 1534
e 216 1535
e 156 1536
e 793 1537
e 196 1538
e 1540 1539
e 35 1541
e 111 1542
e 1544 1543
e 1567 1544
e 132 1545
e 639 1546
e 52 1547
e 18 1548
e 258 1549
e 1550 1549
e 380 1551
e 1553 1552
e 638 1554
e 137 1555
e 352 1556
e 357 1557
e 218 1558
e 348 1559
e 239 1560
e 179 1561
e 535 1561
e 106 1562
e 740 1563
e 312 1564
e 381 1565
e 117 1566
e 216 1568
e 52 1569
e 216 1570
e 1223 1571
e 484 1572
e 1573 1572
e 1749 1573
e 1575 1574
e 427 1576
e 169 1578
e 258 1579
e 419 1580
e 718 1581
e 121 1582
e 1583 1582
e 121 1583
e 423 1584
e 1332 1585
e 374 1586
e 102 1587
e 166 1590
e 239 1591
e 20 1593
e 384 1594
e 242 1595
e 256 1596
e 551 1597
e 56 1598
e 795 1599
e 1601 1600
e 990 1602
e 826 1603
e 149 1604
e 117 1605
e 515 1606
e 671 1607
e 672 1607
e 1609 1608
e 1093 1609
e 1611 1610
e 66 1612
e 144 1613
e 1615 1614
e 96 1615
e 111 1616
e 193 1617
e 185 1618
e 638 1619
e 1040 1620
e 653 1621
e 352 1622
e 428 1623
e 326 1624
e 142 1625
e 710 1626
e 166 1627
e 1040 1629
e 826 1630
e 60 1631
e 183 1632
e 196 1633
e 171 1634
e 89 1635
e 783 1636
e 216 1637
e 1638 1637
e 602 1638
e 47 1640
e 104 1641
e 196 1641
e 147 1642
e 193 1643
e 539 1644
e 486 1645
e 111 1646
e 66 1647
e 30 1648
e 388 1648
e 442 1648
e 91 1649
e 1389 1650
e 218 1651
e 26 1652
e 1552 1653
e 46 1654
e 342 1655
e 114 1656
e 814 1656
e 826 1657
e 374 1658
e 288 1659
e 693 1661
e 1518 1661
e 539 1662
e 631 1663
e 1538 1665
e 111 1666
e 900 1667
e 1668 1667
e 79 1669
e 1671 1670
e 248 1672
e 377 1673
e 685 1674
e 1305 1675
e 461 1676
e 436 1677
e 603 1678
e 828 1682
e 153 1683
e 1881 1684
e 14 1685
e 1323 1686
e 156 1687
e 54 1688
e 134 1690
e 982 1691
e 216 1692
e 14 1693
e 367 1694
e 20 1696
e 309 1696
e 932 1696
e 216 1697
e 1699 1698
e 501 1699
e 50 1701
e 1303 1702
e 486 1703
e 1032 1705
e 603 1706
e 56 1707
e 175 1708
e 826 1709
e 419 1710
e 326 1711
e 1599 1712
e 1314 1713
e 1049 1714
e 551 1715
e 381 1716
e 1053 1717
e 1718 1717
e 156 1720
e 56 1722
e 826 1723
e 1314 1724
e 648 1725
e 1418 1726
e 962 1727
e 1729 1728
e 22 1730
e 20 1731
e 20 1732
e 461 1733
e 1044 1734
e 603 1735
e 492 1736
e 503 1737
e 1044 1738
e 454 1739
e 461 1740
e 279 1741
e 167 1743
e 105 1744
e 326 1744
e 551 1745
e 1283 1746
e 248 1747
e 1749 1748
e 255 1749
e 403 1750
e 461 1751
e 992 1752
e 10 1753
e 1165 1754
e 46 1755
e 861 1756
e 1758 1757
e 1760 1759
e 104 1761
e 966 1761
e 60 1762
e 352 1763
e 804 1764
e 9 1765
e 427 1766
e 1314 1767
e 66 1768
e 367 1769
e 310 1770
e 60 1771
e 653 1772
e 198 1773
e 1323 1774
e 1775 1774
e 381 1776
e 751 1777
e 563 1778
e 1551 1779
e 845 1780
e 124 1781
e 749 1782
e 732 1783
e 552 1785
e 66 1786
e 837 1787
e 602 1788
e 156 1789
e 710 1790
e 214 1791
e 1793 1792
e 533 1794
e 32 1796
e 800 1797
e 1799 1798
e 1415 1800
e 454 1801
e 1460 1802
e 948 1803
e 224 1804
e 852 1805
e 20 1806
e 342 1807
e 1809 1808
e 117 1810
e 1616 1812
e 403 1813
e 6 1814
e 315 1815
e 453 1816
e 1818 1817
e 52 1819
e 96 1820
e 293 1821
e 229 1822
e 130 1823
e 1825 1824
e 1826 1824
e 12 1827
e 14 1828
e 40 1829
e 32 1830
e 248 1831
e 106 1832
e 539 1833
e 1319 1835
e 216 1836
e 12 1838
e 1165 1839
e 384 1840
e 1507 1841
e 106 1842
e 162 1843
e 888 1844
e 624 1845
e 111 1846
e 96 1847
e 579 1848
e 852 1848
e 177 1849
e 10 1850
e 648 1851
e 1616 1852
e 515 1853
e 436 1854
e 789 1855
e 1792 1856
e 328 1857
e 258 1858
e 367 1859
e 20 1860
e 124 1861
e 334 1862
e 579 1863
e 461 1864
e 179 1865
e 1867 1866
e 91 1868
e 109 1869
e 20 1870
